MLIP output to VASP
1.0
 18.025300000000   0.002105000000   0.004818000000
  0.002104000000  17.988500000000   0.003955000000
  0.004822000000   0.003961000000  17.965300000000
Ag Sb Te
54 54 108
D
  0.006242122171   0.998948183275   0.001884749233
  0.498886473927   0.673088320228   0.505073352555
  0.164950136493   0.840087181992   0.339436175596
  0.001492164671   0.838653621251   0.498912678089
  0.000888146799   0.663332765307   0.337460673622
  0.326626849687   0.661055132453   0.662004633309
  0.498141205468   0.666702155709   0.827994141409
  0.331414464273   0.671221128922   0.338574839582
  0.166715483065   0.671940429663   0.163757868803
  0.836848354096   0.998862355320   0.177469208085
  0.831111721421   0.159640834387   0.005392691702
  0.657285013211   0.003375640620   0.338728540584
  0.494696598515   0.168237978158   0.663921625054
  0.172146888569   0.502286983229   0.668576870482
  0.833083111390   0.165085402612   0.327592820204
  0.657667273937   0.165810793148   0.166159517369
  0.996001134526   0.499191852071   0.835846156911
  0.506090928638   0.839924045467   0.999996646552
  0.167436590782   0.670613193070   0.838708010182
  0.333145184477   0.327650823874   0.995173976916
  0.327912229350   0.498978303898   0.168776845346
  0.497433753913   0.167332698617   0.332909083809
  0.495533686281   0.997031134488   0.495415008965
  0.326281262079   0.995692659704   0.327131749117
  0.331192217677   0.499363249147   0.491550897243
  0.005728412509   0.669003344588   0.661771664947
  0.339432012365   0.337249634351   0.669136100942
  0.493721240409   0.999887519805   0.172700522447
  0.335922770357   0.162367500768   0.167910881568
  0.329284002670   0.004036878340   0.005925564495
  0.494364462170   0.493063264947   0.666705709719
  0.333411262515   0.835235689919   0.166867253393
  0.167879706103   0.833845140759   0.662281915584
  0.505727847605   0.161132473255   0.000996650448
  0.669364686724   0.004250500572   0.661918152784
  0.833434271110   0.998475530517   0.496980598318
  0.167761430787   0.994365651348   0.833209521092
  0.995156424435   0.994216538171   0.666750525176
  0.171545686808   0.163880604388   0.662116710831
  0.163662040186   0.161088667884   0.338800597296
  0.165132974357   0.005002978937   0.501466415955
  0.999937305203   0.156154899000   0.498038702913
  0.006031533207   0.002119645677   0.338312889675
  0.670903099832   0.499396606461   0.833601023934
  0.662975165576   0.326423355791   0.660919371304
  0.664492321548   0.671527682217   0.334645821891
  0.006617713931   0.498902828699   0.159690901636
  0.168093103584   0.499272252616   0.991478879043
  0.831549630060   0.838549416733   0.000859664517
  0.668947209831   0.331562628914   0.337671270847
  0.835740898654   0.666277923510   0.833208366749
  0.994507198264   0.335571031202   0.332508852114
  0.165248749381   0.995635050891   0.169411370525
  0.167092068581   0.328849208293   0.498431662805
  0.839671735978   0.842856547794   0.330088613267
  0.840941133642   0.832608329418   0.670256292947
  0.332548293444   0.665252454614   0.001566782011
  0.669843816383   0.834567177603   0.499445708076
  0.500717659075   0.338640841982   0.831911975741
  0.493669242180   0.501586522171   0.995120467061
  0.661808323531   0.664350623111   0.665415211590
  0.331302067463   0.501274603390   0.826661466582
  0.831895294599   0.670309079446   0.503404388241
  0.668213096922   0.827233670464   0.833256825109
  0.330830638144   0.331064163165   0.332214697178
  0.497755612799   0.322903512931   0.167225970625
  0.494141129108   0.330377622467   0.500371415147
  0.662245860220   0.331808951602   0.999910772158
  0.492844418604   0.670238646650   0.170327502560
  0.834014262703   0.163240759131   0.663469917122
  0.838985861943   0.996365569553   0.836123924470
  0.667379788115   0.168569325941   0.834598802831
  0.833096580193   0.323346359045   0.166713459048
  0.840137356827   0.499458050049   0.999842856041
  0.668038303556   0.164018224288   0.490268055606
  0.658070006764   0.498890379134   0.506230138504
  0.839077036198   0.324510698181   0.498118811655
  0.832926391565   0.497508860972   0.332881683751
  0.667438167627   0.000484302049   0.005345937307
  0.495381051065   0.833343992512   0.668723449016
  0.333012822664   0.832091486749   0.838500031861
  0.834176267423   0.337580577411   0.832073263879
  0.834545473649   0.499230654162   0.667169749610
  0.492455591290   0.843041953784   0.329006647149
  0.665629691343   0.666268989312   0.004830918621
  0.326688607084   0.829132661751   0.494681791822
  0.665761922920   0.496660320681   0.165208934306
  0.663185502163   0.842468175639   0.167941688178
  0.839364542598   0.669543388695   0.164577151371
  0.497445911786   0.997589740836   0.835602958936
  0.498495271056   0.499752080953   0.338389101785
  0.329178592063   0.000976751592   0.664676356893
  0.333996090153   0.165507775790   0.838251307998
  0.005347376679   0.332912945200   0.659992183022
  0.001253464514   0.669624963406   0.996896550243
  0.007705262683   0.830380484599   0.172793035531
  0.168819947109   0.830438019398   0.002605926042
  0.166610936690   0.504713471856   0.330975888336
  0.005701848979   0.500765311073   0.500176562690
  0.170986406034   0.666300957720   0.501210721068
  0.167480067821   0.333895903734   0.171923793242
  0.168520546399   0.336077290483   0.825277556307
  0.003649523658   0.826011640468   0.828559252590
  0.003006454428   0.165818552777   0.827224132217
  0.006090402933   0.327536217540   0.003011987036
  0.325636175683   0.168432870288   0.494786334373
  0.001739290652   0.165010009815   0.175152043412
  0.169629266440   0.166948575476   0.002140985376
  0.999248714760   0.339432773529   0.171707856984
  0.667492600004   0.499811373964   0.994200334348
  0.666451633341   0.326063362438   0.170745796365
  0.839167500592   0.499022321078   0.166758320635
  0.833306399998   0.326250107036   0.998697200191
  0.006797440556   0.499464390475   0.997349995172
  0.666281173059   0.843137370474   0.333473710375
  0.171040070855   0.162602604789   0.169907701827
  0.163809233997   0.331977956060   0.338227460398
  0.663430803291   0.164562523104   0.666632494064
  0.163066375690   0.999278890801   0.335374427267
  0.659584906395   0.666139721439   0.494116298493
  0.166695092573   0.999122059561   0.995187686000
  0.831920056054   0.998033584227   0.661872865265
  0.171360039342   0.494735011140   0.504554207854
  0.005790927645   0.329252867283   0.492958086100
  0.998882766808   0.501185546925   0.328487984837
  0.837498229179   0.664573008202   0.672938194591
  0.668592833178   0.161046726209   0.326578558662
  0.835110098635   0.826017378095   0.840314914909
  0.663721777371   0.999589791337   0.500354506234
  0.667317606372   0.999522585248   0.828899698416
  0.835337346938   0.166292343905   0.838623215779
  0.167204165730   0.503021489111   0.163084666571
  0.840392273037   0.838077001182   0.500590382320
  0.160700850450   0.169314372792   0.502431136967
  0.669284086894   0.832331169813   0.000481902306
  0.667215284490   0.666514932805   0.174613242762
  0.835312542481   0.838697170704   0.160972453388
  0.832862475479   0.670167542294   0.994190843235
  0.006466010763   0.996713382084   0.506870847987
  0.002309905777   0.174932424350   0.339111899781
  0.997544989754   0.159834566137   0.998756585336
  0.163685509366   0.998309735014   0.671742918193
  0.661404347843   0.495774082208   0.672978050317
  0.172673050604   0.339582263099   0.999995826031
  0.667511557097   0.339011412583   0.827592255024
  0.827891486760   0.331625237409   0.665666570611
  0.168164576063   0.162707165901   0.827609128499
  0.005939346307   0.999288621556   0.829116084771
  0.004731032439   0.162226749486   0.659974261442
  0.003107672231   0.999301308270   0.167097838086
  0.827968912496   0.666583374757   0.333776475123
  0.665650065646   0.497576534197   0.334087656916
  0.666335220223   0.332263878418   0.499517152136
  0.831838610998   0.498537334353   0.499909296612
  0.829972762349   0.327094838918   0.332592137684
  0.833485044557   0.505659441132   0.833288861637
  0.839796207370   0.158410124064   0.495256820083
  0.163940308815   0.503503420743   0.828988036914
  0.171103715273   0.334078248240   0.659747087042
  0.504400436804   0.506514423268   0.826441336028
  0.502232487626   0.329294889361   0.666923340138
  0.004517049504   0.659071740031   0.827694032837
  0.005879346757   0.830778906265   0.661769407844
  0.496797617718   0.000192552229   0.006946539581
  0.495865986687   0.160135692874   0.167960322456
  0.333551902986   0.505468994346   0.330438891477
  0.327495710106   0.338328639592   0.503884935732
  0.491799765227   0.503608345036   0.506449585463
  0.504601630864   0.326894305587   0.333147565716
  0.665097764308   0.660593990101   0.834379771545
  0.324565042303   0.999214132220   0.164951565169
  0.337508897971   0.167004215131   0.006114586478
  0.328532884417   0.494994932267   0.003054578749
  0.333091004140   0.334049896965   0.162148920430
  0.495732882083   0.500537949542   0.166517783248
  0.493831823494   0.328261854724   0.000532773883
  0.487645266209   0.007015410647   0.332439356936
  0.500153647984   0.161277749225   0.497951184017
  0.327354616234   0.000118069901   0.496596346206
  0.325983501092   0.163539005288   0.328807902719
  0.333174075568   0.170718800680   0.667387662574
  0.329072712501   0.999820930227   0.840317736742
  0.501526652078   0.166524781979   0.833942379981
  0.503022891753   0.003124190244   0.664640394512
  0.334196167666   0.332851524839   0.832330849754
  0.334027383728   0.498231546589   0.661120056459
  0.168195985513   0.831217822517   0.829120702980
  0.166769934771   0.667593069036   0.669282236972
  0.001588802509   0.339225599013   0.832357417238
  0.668561618147   0.166086146559   0.005561833057
  0.673928057821   0.006284930354   0.172408930422
  0.832949479726   0.159525219047   0.165927422707
  0.839607715279   0.999656428797   0.003270979547
  0.003233046501   0.503402670609   0.670096990622
  0.328741135919   0.828788619195   0.667488896162
  0.332087943897   0.666237906784   0.828166800964
  0.501351903305   0.826495576643   0.840437715848
  0.494867002657   0.663186075861   0.665382310891
  0.166478520515   0.658739883094   0.001811580672
  0.172502667565   0.832713048166   0.171223163657
  0.850496612646   0.005089336739   0.338593966090
  0.005624370293   0.658760755947   0.169225534948
  0.326488427466   0.831643338777   0.327327004244
  0.339129800615   0.661061467567   0.500359113097
  0.499696752684   0.836354970669   0.499052878445
  0.501428192468   0.667393263925   0.338491679995
  0.167093598382   0.671125757842   0.328849539984
  0.162367258454   0.833870127784   0.501242938231
  0.999321856773   0.670140015003   0.500572484931
  0.336556446790   0.836243556432   0.006143350112
  0.328218607203   0.664865533965   0.170523125111
  0.494375176493   0.840349444250   0.159899613051
  0.499816338511   0.671723545892   0.996940502984
  0.004074115359   0.822834005582   0.338781766095
  0.997322343776   0.838769213139   0.000163068176
  0.666880406852   0.838889001300   0.666856059415
