AgSbTe System
10.0
0.687650 -0.214325 0.001464
0.687650 0.214325 0.001464
0.620073 -0.000000 0.366483
Ag Sb Te
1 1 2
Direct
0.500000 0.500000 0.500000
-0.000000 0.000000 -0.000000
0.755909 0.755909 0.755909
0.244091 0.244091 0.244091
