AgSbTe System
10.0
0.000000 0.599839 0.599839
0.599839 0.000000 0.599839
0.599839 0.599839 0.000000
Ag Sb Te
4 4 8
Direct
0.500000 0.000000 0.500000
0.000000 0.500000 0.500000
0.500000 0.500000 0.500000
0.500000 0.500000 0.000000
0.500000 0.000000 0.000000
0.000000 0.000000 0.500000
0.000000 0.000000 0.000000
0.000000 0.500000 0.000000
0.255480 0.255480 0.255480
0.255480 0.733559 0.255480
0.733559 0.255480 0.255480
0.255480 0.255480 0.733559
0.266441 0.744520 0.744520
0.744520 0.744520 0.266441
0.744520 0.744520 0.744520
0.744520 0.266441 0.744520
